
  22    4
  10   10   10   10

   0   0   0   0   0   4 2 4 5 6 
   8  10  10  10  10   1 3 
   7  10  10  10  10   3 10 8 7 
   3  10  10  10  10   3 11 9 8 
  10  10  10  10  10   3 10 8 7 
   3  10  10  10  10   3 11 10 8 
   6  10  10  10  10   3 16 12 11 
   5  10  10  10  10   4 16 15 14 12 
   2  10  10  10  10   1 10 
   5  10  10  10  10   3 17 16 14 
   1  10  10  10  10   2 17 14 
   7  10  10  10  10   1 13 
   7  10  10  10  10   2 21 18 
   2  10  10  10  10   3 21 20 19 
   7  10  10  10  10   3 21 20 19 
   3  10  10  10  10   1 18 
   1  10  10  10  10   1 18 
   7  10  10  10  10   2 20 19 
   2  10  10  10  10   1 22
  10  10  10  10  10   1 22
   3  10  10  10  10   1 22
   0   0   0   0   0   0 
